NAME: A-n44-f7
COMMENT : -
TYPE : GVRP
DIMENSION : 50
EDGE_WEIGHT_TYPE : EUC_2D
CAPACITY : 100
AUTONOMY : 64
DEPOT_COORD_SECTION
1 31 73
CUSTOMER_COORD_SECTION
2 11 67
3 52 96
4 81 29
5 97 62
6 71 5
7 6 56
8 48 50
9 91 17
10 49 68
11 85 29
12 11 16
13 74 98
14 56 37
15 13 81
16 66 80
17 96 55
18 36 17
19 32 23
20 6 13
21 64 30
22 87 5
23 75 61
24 40 72
25 1 44
26 60 95
27 27 49
28 15 33
29 46 53
30 28 43
31 3 9
32 1 100
33 53 46
34 98 8
35 6 25
36 7 81
37 96 88
38 2 35
39 32 94
40 95 94
41 9 11
42 96 16
43 90 68
44 33 31
45 6 59
AFS_COORD_SECTION
46 95 14
47 3 99
48 4 38
49 2 27
50 87 80
51 56 35
EOF